c Reduced graph for r250.1_2 generated by Cyril Grelier
p edge 232 827
e 1 4
e 1 5
e 1 8
e 1 10
e 1 21
e 1 31
e 1 33
e 1 40
e 1 49
e 1 51
e 1 80
e 1 94
e 1 114
e 2 3
e 2 6
e 2 9
e 2 11
e 2 12
e 2 13
e 2 15
e 2 17
e 2 20
e 2 34
e 2 35
e 2 36
e 2 46
e 3 6
e 3 9
e 3 11
e 3 12
e 3 13
e 3 15
e 3 17
e 3 20
e 3 34
e 3 35
e 3 36
e 3 46
e 4 5
e 4 8
e 4 10
e 4 21
e 4 31
e 4 33
e 4 40
e 4 51
e 4 80
e 4 94
e 4 114
e 4 122
e 5 8
e 5 21
e 5 31
e 5 40
e 5 49
e 5 52
e 5 80
e 5 82
e 5 94
e 5 110
e 5 188
e 6 11
e 6 13
e 6 17
e 6 19
e 6 20
e 6 34
e 6 36
e 6 57
e 6 75
e 6 95
e 6 199
e 7 55
e 7 58
e 7 60
e 7 61
e 7 99
e 7 100
e 7 135
e 7 170
e 7 189
e 7 190
e 7 198
e 7 201
e 8 21
e 8 31
e 8 40
e 8 49
e 8 52
e 8 82
e 8 94
e 8 110
e 8 188
e 9 11
e 9 12
e 9 15
e 9 17
e 9 34
e 9 35
e 9 46
e 9 50
e 9 70
e 9 125
e 10 21
e 10 31
e 10 33
e 10 40
e 10 49
e 10 51
e 10 80
e 10 94
e 10 114
e 10 122
e 11 12
e 11 13
e 11 17
e 11 20
e 11 34
e 11 36
e 11 75
e 11 95
e 12 15
e 12 17
e 12 20
e 12 34
e 12 35
e 12 46
e 12 70
e 12 125
e 13 17
e 13 19
e 13 20
e 13 34
e 13 36
e 13 75
e 13 95
e 13 128
e 14 18
e 14 42
e 14 44
e 14 50
e 14 54
e 14 56
e 14 74
e 14 86
e 14 137
e 14 153
e 14 185
e 15 20
e 15 35
e 15 45
e 15 46
e 15 71
e 15 125
e 15 157
e 16 22
e 16 23
e 16 24
e 16 26
e 16 27
e 16 38
e 16 39
e 16 53
e 16 81
e 16 84
e 16 88
e 17 20
e 17 34
e 17 50
e 17 153
e 18 42
e 18 44
e 18 50
e 18 54
e 18 56
e 18 74
e 18 86
e 18 137
e 18 153
e 18 185
e 19 32
e 19 36
e 19 57
e 19 75
e 19 95
e 19 128
e 19 152
e 19 155
e 19 163
e 20 34
e 20 35
e 20 36
e 21 31
e 21 40
e 21 49
e 21 52
e 21 80
e 21 94
e 22 23
e 22 24
e 22 26
e 22 27
e 22 38
e 22 53
e 22 81
e 22 84
e 22 88
e 22 186
e 23 24
e 23 26
e 23 27
e 23 38
e 23 39
e 23 53
e 23 81
e 23 84
e 23 88
e 24 26
e 24 27
e 24 38
e 24 39
e 24 53
e 24 81
e 24 84
e 24 88
e 25 28
e 25 30
e 25 62
e 25 64
e 25 65
e 25 90
e 25 91
e 25 101
e 25 120
e 25 144
e 25 176
e 26 27
e 26 38
e 26 53
e 26 81
e 26 84
e 26 88
e 26 186
e 27 37
e 27 38
e 27 39
e 27 53
e 27 88
e 27 154
e 28 30
e 28 62
e 28 64
e 28 90
e 28 91
e 28 101
e 28 103
e 28 140
e 28 176
e 29 83
e 29 89
e 29 113
e 29 118
e 29 132
e 29 150
e 29 160
e 29 164
e 29 181
e 29 222
e 30 62
e 30 64
e 30 90
e 30 91
e 30 101
e 30 103
e 30 140
e 30 176
e 31 33
e 31 51
e 31 94
e 31 141
e 32 37
e 32 39
e 32 57
e 32 87
e 32 128
e 32 152
e 32 154
e 32 155
e 32 163
e 33 51
e 33 94
e 33 114
e 33 122
e 33 141
e 33 215
e 34 153
e 35 45
e 35 46
e 35 71
e 35 125
e 36 57
e 36 128
e 36 155
e 37 39
e 37 66
e 37 79
e 37 87
e 37 112
e 37 116
e 37 154
e 37 195
e 38 39
e 38 81
e 38 84
e 38 154
e 39 88
e 39 154
e 39 163
e 40 49
e 40 80
e 40 144
e 41 47
e 41 76
e 41 78
e 41 93
e 41 111
e 41 127
e 41 130
e 41 162
e 41 177
e 42 44
e 42 54
e 42 56
e 42 86
e 42 106
e 42 175
e 42 185
e 43 48
e 43 59
e 43 65
e 43 67
e 43 69
e 43 97
e 43 105
e 43 120
e 43 174
e 44 54
e 44 56
e 44 86
e 44 106
e 44 137
e 44 185
e 45 46
e 45 71
e 45 125
e 45 126
e 45 157
e 45 182
e 45 191
e 46 70
e 46 125
e 47 73
e 47 76
e 47 78
e 47 93
e 47 111
e 47 130
e 47 169
e 47 177
e 48 59
e 48 65
e 48 67
e 48 69
e 48 97
e 48 119
e 48 139
e 48 174
e 49 52
e 49 80
e 49 115
e 50 70
e 50 74
e 50 137
e 50 153
e 50 166
e 51 114
e 51 122
e 51 141
e 51 209
e 52 72
e 52 82
e 52 110
e 52 115
e 52 131
e 53 88
e 53 186
e 53 217
e 54 56
e 54 86
e 54 98
e 54 106
e 54 137
e 55 58
e 55 60
e 55 61
e 55 99
e 55 100
e 55 133
e 55 135
e 55 198
e 56 86
e 56 98
e 56 106
e 56 175
e 57 75
e 57 95
e 57 128
e 57 152
e 57 155
e 58 60
e 58 61
e 58 96
e 58 99
e 58 100
e 58 133
e 58 213
e 59 67
e 59 69
e 59 97
e 59 119
e 59 139
e 59 158
e 59 174
e 60 61
e 60 96
e 60 99
e 60 100
e 60 133
e 61 99
e 61 100
e 61 133
e 61 135
e 62 64
e 62 91
e 62 101
e 62 103
e 62 140
e 63 85
e 63 96
e 63 102
e 63 104
e 63 107
e 63 121
e 63 124
e 63 134
e 64 90
e 64 91
e 64 140
e 64 156
e 65 67
e 65 69
e 65 97
e 65 120
e 65 144
e 66 79
e 66 87
e 66 112
e 66 116
e 66 145
e 66 192
e 66 195
e 67 69
e 67 97
e 67 119
e 67 158
e 68 105
e 68 108
e 68 120
e 68 123
e 68 127
e 68 148
e 68 161
e 68 187
e 69 72
e 69 97
e 69 115
e 70 74
e 70 92
e 70 125
e 70 166
e 71 157
e 71 191
e 71 204
e 71 214
e 71 216
e 72 82
e 72 97
e 72 115
e 72 131
e 72 158
e 72 212
e 73 76
e 73 78
e 73 93
e 73 129
e 73 130
e 73 169
e 73 194
e 74 92
e 74 117
e 74 137
e 74 166
e 75 95
e 75 142
e 75 199
e 76 78
e 76 93
e 76 111
e 76 130
e 76 169
e 77 108
e 77 109
e 77 143
e 77 162
e 77 168
e 77 178
e 77 211
e 77 221
e 78 93
e 78 111
e 78 130
e 78 169
e 79 87
e 79 112
e 79 116
e 79 145
e 79 192
e 79 195
e 80 144
e 81 84
e 81 103
e 82 110
e 82 115
e 82 131
e 82 212
e 83 89
e 83 118
e 83 132
e 83 150
e 83 160
e 83 164
e 83 181
e 84 103
e 85 96
e 85 102
e 85 104
e 85 107
e 85 121
e 85 124
e 85 134
e 86 106
e 86 175
e 87 112
e 87 116
e 87 145
e 87 152
e 89 113
e 89 118
e 89 132
e 89 150
e 89 160
e 89 164
e 90 91
e 90 120
e 90 148
e 90 156
e 91 140
e 91 156
e 92 117
e 92 166
e 92 167
e 92 183
e 92 205
e 92 207
e 93 129
e 93 130
e 93 169
e 95 142
e 95 199
e 96 102
e 96 104
e 96 133
e 96 213
e 97 115
e 98 142
e 98 149
e 98 159
e 98 165
e 98 179
e 98 197
e 99 100
e 99 201
e 100 133
e 101 103
e 101 144
e 101 176
e 102 104
e 102 107
e 102 121
e 102 134
e 103 140
e 104 107
e 104 121
e 104 134
e 105 123
e 105 148
e 105 161
e 105 174
e 105 187
e 106 175
e 106 179
e 107 121
e 107 124
e 107 134
e 108 123
e 108 127
e 108 143
e 108 162
e 108 168
e 109 143
e 109 168
e 109 178
e 109 182
e 109 204
e 109 211
e 110 131
e 110 147
e 110 188
e 111 127
e 111 161
e 111 177
e 112 116
e 112 145
e 112 195
e 113 132
e 113 136
e 113 171
e 113 196
e 113 210
e 114 122
e 114 209
e 115 131
e 116 145
e 116 152
e 117 166
e 117 167
e 117 183
e 117 205
e 117 207
e 118 150
e 118 160
e 118 164
e 118 181
e 119 139
e 119 158
e 119 219
e 119 224
e 120 148
e 120 187
e 121 124
e 121 134
e 122 141
e 122 209
e 123 127
e 123 148
e 123 161
e 123 187
e 124 134
e 124 206
e 124 226
e 126 136
e 126 157
e 126 171
e 126 182
e 126 191
e 126 196
e 127 161
e 127 177
e 128 155
e 128 163
e 129 184
e 129 193
e 129 194
e 129 202
e 129 203
e 130 162
e 131 158
e 131 212
e 132 136
e 132 180
e 132 218
e 133 213
e 135 170
e 135 189
e 135 190
e 135 198
e 136 171
e 136 180
e 136 196
e 136 210
e 137 153
e 138 146
e 138 147
e 138 151
e 138 172
e 138 173
e 138 200
e 139 174
e 139 219
e 139 224
e 141 206
e 141 215
e 142 165
e 142 197
e 142 199
e 143 156
e 143 168
e 143 178
e 144 176
e 145 192
e 146 147
e 146 151
e 146 172
e 146 173
e 146 200
e 147 151
e 147 172
e 147 188
e 148 187
e 149 159
e 149 165
e 149 197
e 149 208
e 149 225
e 150 160
e 150 164
e 151 172
e 151 173
e 151 200
e 152 231
e 154 163
e 155 163
e 156 168
e 156 178
e 157 182
e 157 191
e 158 212
e 159 165
e 159 179
e 159 208
e 159 225
e 160 164
e 161 177
e 162 211
e 162 221
e 165 179
e 165 197
e 166 167
e 167 183
e 167 205
e 167 207
e 168 178
e 169 232
e 170 189
e 170 190
e 170 198
e 170 227
e 171 181
e 171 196
e 171 222
e 172 173
e 172 188
e 173 200
e 175 179
e 180 210
e 180 218
e 180 223
e 181 222
e 182 191
e 183 185
e 183 207
e 184 193
e 184 194
e 184 202
e 184 203
e 186 217
e 186 220
e 189 190
e 189 201
e 190 201
e 192 227
e 192 229
e 193 194
e 193 202
e 193 203
e 194 202
e 195 230
e 196 210
e 197 199
e 198 230
e 203 232
e 204 214
e 204 216
e 205 223
e 206 215
e 206 226
e 208 225
e 208 228
e 209 220
e 211 221
e 213 217
e 214 216
e 218 223
e 219 224
e 220 226
e 227 229
e 228 231
